(set-logic SLIA)
(constraint (= (f "https=//exceljet.net/catalog") "exceljet.net/catalog"))
(constraint (= (f "https=//microsoft.com") "microsoft.com"))
(constraint (= (f "ftp=//someserver.com") "someserver.com"))
(constraint (= (f "sftp=//127.0.0.1") "127.0.0.1"))
(check-synth)
(synth-fun f ((_arg_0 String)) String ((Start String (ntString)) (ntString String ((Str A) (str.++ ntString A))) (A String ((Str ConstString) (SubStr X P P))) (P Int ((Int ntInt) (Pos X Pattern ntInt Direction))) (Pattern String ((Str ConstString) "ProperCase" "CAPS" "lowercase" "Digits" "Alphabets" "Alphanumeric" "WhiteSpace" "ProperCaseWSpaces" "CAPSWSpaces" "lowercaseSpaces" "AlphabetsWSpaces")) (X String (_arg_0)) (ConstString String (_arg_0 "" " " "=" "/")) (Direction Int (0 1)) (ntInt Int (-5 -4 -3 -2 -1 0 1 2 3 4 5))))
(define-fun ResFun ((_arg_0 String)) String (Str (SubStr _arg_0 (Pos _arg_0 "Alphanumeric" 1 0) (Pos _arg_0 "Alphanumeric" -1 1))))
